language ESSENCE' 1.0
letting lastdx=103
letting cage be [
[9,1,13,1,12,0,0, 0,0, 0,0],
[2,14,6,0,0, 0,0, 0,0, 0,0],
[16,9,3,0,0, 0,0, 0,0, 0,0],
[14,16,11,0,0, 0,0, 0,0, 0,0],
[17,7,8,8,8,0,0, 0,0, 0,0],
[14,13,2,13,1,0,0, 0,0, 0,0],
[34,4,13,4,12,5,12,0,0, 0,0],
[29,4,2,4,3,4,4,3,4,0,0],
[42,11,3,10,3,10,4,11,4,0,0],
[12,6,11,0,0, 0,0, 0,0, 0,0],
[35,15,9,14,9,14,10,13,10,0,0],
[34,12,12,12,11,11,11,0,0, 0,0],
[5,12,15,0,0, 0,0, 0,0, 0,0],
[58,2,10,2,9,3,9,3,10,4,10],
[14,6,9,6,10,7,10,0,0, 0,0],
[12,16,16,0,0, 0,0, 0,0, 0,0],
[34,5,6,5,5,4,5,0,0, 0,0],
[10,10,8,0,0, 0,0, 0,0, 0,0],
[14,6,16,6,15,0,0, 0,0, 0,0],
[14,8,12,8,11,0,0, 0,0, 0,0],
[21,14,16,13,16,0,0, 0,0, 0,0],
[48,2,1,1,1,1,2,1,3,1,4],
[60,3,7,3,6,3,5,2,5,2,4],
[15,3,16,0,0, 0,0, 0,0, 0,0],
[42,7,9,8,9,9,9,9,8,9,7],
[13,13,9,12,9,0,0, 0,0, 0,0],
[25,2,11,1,11,1,10,0,0, 0,0],
[10,15,2,0,0, 0,0, 0,0, 0,0],
[20,15,12,16,12,16,13,15,13,0,0],
[10,9,14,0,0, 0,0, 0,0, 0,0],
[15,6,14,0,0, 0,0, 0,0, 0,0],
[4,7,7,0,0, 0,0, 0,0, 0,0],
[8,13,8,0,0, 0,0, 0,0, 0,0],
[4,13,6,0,0, 0,0, 0,0, 0,0],
[14,7,4,0,0, 0,0, 0,0, 0,0],
[49,13,7,14,7,14,8,15,8,16,8],
[19,3,1,3,2,0,0, 0,0, 0,0],
[51,6,2,6,1,5,1,4,1,5,2],
[9,16,4,0,0, 0,0, 0,0, 0,0],
[15,11,8,0,0, 0,0, 0,0, 0,0],
[28,8,14,8,15,0,0, 0,0, 0,0],
[30,5,7,6,7,6,6,7,6,7,5],
[5,1,5,0,0, 0,0, 0,0, 0,0],
[17,3,14,3,15,2,15,2,14,0,0],
[2,10,16,0,0, 0,0, 0,0, 0,0],
[14,7,13,7,14,0,0, 0,0, 0,0],
[16,11,16,12,16,0,0, 0,0, 0,0],
[3,5,11,0,0, 0,0, 0,0, 0,0],
[11,11,15,0,0, 0,0, 0,0, 0,0],
[12,3,13,0,0, 0,0, 0,0, 0,0],
[40,10,2,9,2,9,1,8,1,0,0],
[30,5,16,4,16,4,15,4,14,0,0],
[7,8,13,9,13,0,0, 0,0, 0,0],
[1,16,3,0,0, 0,0, 0,0, 0,0],
[5,16,2,0,0, 0,0, 0,0, 0,0],
[15,9,4,9,5,0,0, 0,0, 0,0],
[1,13,11,0,0, 0,0, 0,0, 0,0],
[13,10,9,0,0, 0,0, 0,0, 0,0],
[27,1,6,2,6,2,7,0,0, 0,0],
[34,3,8,2,8,1,8,1,7,1,9],
[35,3,11,4,11,3,12,2,12,2,13],
[22,12,3,12,4,0,0, 0,0, 0,0],
[44,1,15,1,14,1,16,2,16,0,0],
[46,13,12,14,12,14,11,15,11,15,10],
[8,10,6,10,5,11,5,0,0, 0,0],
[7,10,12,0,0, 0,0, 0,0, 0,0],
[17,2,2,2,3,3,3,0,0, 0,0],
[11,9,12,0,0, 0,0, 0,0, 0,0],
[14,6,13,0,0, 0,0, 0,0, 0,0],
[34,15,6,15,5,16,5,0,0, 0,0],
[37,4,6,4,7,4,8,5,8,6,8],
[41,8,4,8,5,8,6,8,7,9,6],
[51,10,7,11,7,11,6,12,6,12,5],
[16,10,13,0,0, 0,0, 0,0, 0,0],
[1,10,1,0,0, 0,0, 0,0, 0,0],
[18,12,14,13,14,14,14,0,0, 0,0],
[6,12,13,0,0, 0,0, 0,0, 0,0],
[24,9,15,10,15,0,0, 0,0, 0,0],
[12,11,12,0,0, 0,0, 0,0, 0,0],
[11,6,5,0,0, 0,0, 0,0, 0,0],
[14,16,14,15,14,0,0, 0,0, 0,0],
[22,11,2,11,1,12,1,12,2,0,0],
[27,5,4,6,4,6,3,5,3,0,0],
[9,15,4,15,3,0,0, 0,0, 0,0],
[14,9,11,10,11,0,0, 0,0, 0,0],
[7,5,13,0,0, 0,0, 0,0, 0,0],
[15,5,14,5,15,0,0, 0,0, 0,0],
[29,6,12,7,12,7,11,0,0, 0,0],
[40,7,1,7,2,8,2,8,3,7,3],
[14,7,15,7,16,0,0, 0,0, 0,0],
[8,8,10,0,0, 0,0, 0,0, 0,0],
[25,8,16,9,16,0,0, 0,0, 0,0],
[2,9,10,0,0, 0,0, 0,0, 0,0],
[5,10,10,0,0, 0,0, 0,0, 0,0],
[27,10,14,11,14,11,13,0,0, 0,0],
[34,11,9,11,10,12,10,0,0, 0,0],
[16,12,7,12,8,0,0, 0,0, 0,0],
[30,13,3,14,3,14,2,14,1,0,0],
[25,13,13,14,13,0,0, 0,0, 0,0],
[7,13,15,0,0, 0,0, 0,0, 0,0],
[27,14,15,15,15,15,16,16,15,0,0],
[29,15,1,16,1,0,0, 0,0, 0,0],
[17,15,7,16,7,16,6,0,0, 0,0],
[23,16,9,16,10,0,0, 0,0, 0,0]
]
